p cnf 27 252
1 2 3 4 5 6 7 8 9 0
10 11 12 13 14 15 16 17 18 0
19 20 21 22 23 24 25 26 27 0
-1 -6 0
-1 -15 0
-1 -24 0
-10 -6 0
-10 -15 0
-10 -24 0
-19 -6 0
-19 -15 0
-19 -24 0
-1 -8 0
-1 -17 0
-1 -26 0
-10 -8 0
-10 -17 0
-10 -26 0
-19 -8 0
-19 -17 0
-19 -26 0
-2 -3 0
-2 -12 0
-2 -21 0
-11 -3 0
-11 -12 0
-11 -21 0
-20 -3 0
-20 -12 0
-20 -21 0
-2 -4 0
-2 -13 0
-2 -22 0
-11 -4 0
-11 -13 0
-11 -22 0
-20 -4 0
-20 -13 0
-20 -22 0
-2 -7 0
-2 -16 0
-2 -25 0
-11 -7 0
-11 -16 0
-11 -25 0
-20 -7 0
-20 -16 0
-20 -25 0
-2 -8 0
-2 -17 0
-2 -26 0
-11 -8 0
-11 -17 0
-11 -26 0
-20 -8 0
-20 -17 0
-20 -26 0
-3 -5 0
-3 -14 0
-3 -23 0
-12 -5 0
-12 -14 0
-12 -23 0
-21 -5 0
-21 -14 0
-21 -23 0
-3 -6 0
-3 -15 0
-3 -24 0
-12 -6 0
-12 -15 0
-12 -24 0
-21 -6 0
-21 -15 0
-21 -24 0
-3 -7 0
-3 -16 0
-3 -25 0
-12 -7 0
-12 -16 0
-12 -25 0
-21 -7 0
-21 -16 0
-21 -25 0
-4 -5 0
-4 -14 0
-4 -23 0
-13 -5 0
-13 -14 0
-13 -23 0
-22 -5 0
-22 -14 0
-22 -23 0
-4 -6 0
-4 -15 0
-4 -24 0
-13 -6 0
-13 -15 0
-13 -24 0
-22 -6 0
-22 -15 0
-22 -24 0
-4 -7 0
-4 -16 0
-4 -25 0
-13 -7 0
-13 -16 0
-13 -25 0
-22 -7 0
-22 -16 0
-22 -25 0
-4 -9 0
-4 -18 0
-4 -27 0
-13 -9 0
-13 -18 0
-13 -27 0
-22 -9 0
-22 -18 0
-22 -27 0
-5 -7 0
-5 -16 0
-5 -25 0
-14 -7 0
-14 -16 0
-14 -25 0
-23 -7 0
-23 -16 0
-23 -25 0
-5 -8 0
-5 -17 0
-5 -26 0
-14 -8 0
-14 -17 0
-14 -26 0
-23 -8 0
-23 -17 0
-23 -26 0
-5 -9 0
-5 -18 0
-5 -27 0
-14 -9 0
-14 -18 0
-14 -27 0
-23 -9 0
-23 -18 0
-23 -27 0
-6 -8 0
-6 -17 0
-6 -26 0
-15 -8 0
-15 -17 0
-15 -26 0
-24 -8 0
-24 -17 0
-24 -26 0
-7 -8 0
-7 -17 0
-7 -26 0
-16 -8 0
-16 -17 0
-16 -26 0
-25 -8 0
-25 -17 0
-25 -26 0
-8 -9 0
-8 -18 0
-8 -27 0
-17 -9 0
-17 -18 0
-17 -27 0
-26 -9 0
-26 -18 0
-26 -27 0
-1 -2 0
-1 -3 0
-1 -4 0
-1 -5 0
-1 -7 0
-1 -9 0
-2 -5 0
-2 -6 0
-2 -9 0
-3 -4 0
-3 -8 0
-3 -9 0
-4 -8 0
-5 -6 0
-6 -7 0
-6 -9 0
-7 -9 0
-10 -11 0
-10 -12 0
-10 -13 0
-10 -14 0
-10 -16 0
-10 -18 0
-11 -14 0
-11 -15 0
-11 -18 0
-12 -13 0
-12 -17 0
-12 -18 0
-13 -17 0
-14 -15 0
-15 -16 0
-15 -18 0
-16 -18 0
-19 -20 0
-19 -21 0
-19 -22 0
-19 -23 0
-19 -25 0
-19 -27 0
-20 -23 0
-20 -24 0
-20 -27 0
-21 -22 0
-21 -26 0
-21 -27 0
-22 -26 0
-23 -24 0
-24 -25 0
-24 -27 0
-25 -27 0
-1 -10 0
-1 -19 0
-10 -19 0
-2 -11 0
-2 -20 0
-11 -20 0
-3 -12 0
-3 -21 0
-12 -21 0
-4 -13 0
-4 -22 0
-13 -22 0
-5 -14 0
-5 -23 0
-14 -23 0
-6 -15 0
-6 -24 0
-15 -24 0
-7 -16 0
-7 -25 0
-16 -25 0
-8 -17 0
-8 -26 0
-17 -26 0
-9 -18 0
-9 -27 0
-18 -27 0
